1800 526
1800 993
1800 1559
909 1197
3581 3695
2266 2040
2266 2045
2266 2088
2266 2336
2266 2340
2266 2392
2266 2443
2266 2506
2266 2539
113 122
2622 2443
2827 2943
2827 3284
678 630
1357 526
526 553
526 993
526 1710
2943 2680
2943 2810
2943 2928
2943 3284
2539 2045
2539 2088
2539 2340
1481 1051
2053 1926
2053 2068
2053 2336
510 553
2340 2040
2340 2045
2340 2088
2340 2506
2088 2040
2088 2045
2088 2443
2088 2506
1926 1945
1926 2068
1926 2336
2778 3225
1385 1531
1637 993
1637 1559
2045 2040
2045 2392
2045 2506
2392 2040
436 402
436 553
425 402
425 553
1945 1916
1945 2068
1945 2336
2040 2506
2928 2810
993 1559
1914 2583
2544 1916
3284 2680
402 553
553 645
